instances/p1/p1_15_20-2.dzn
Alphabet = {A,C,G,T};
ns = 15;
nc = 20;
neighbours = [| I(A),I(C),I(A),I(A),I(C),I(A),I(A),I(A),I(A),I(A),I(C),I(A),I(A),I(C),I(C),I(C),I(A),I(A),I(A),I(C) | I(A),I(A),I(A),I(A),I(A),I(A),I(A),I(A),I(A),I(G),I(C),I(A),I(A),I(G),I(A),I(A),I(C),I(A),I(C),I(C) | I(A),I(A),I(C),I(A),I(A),I(A),I(C),I(A),I(A),I(A),I(C),I(C),I(A),I(C),I(A),I(A),I(A),I(A),I(A),I(G) | I(A),I(A),I(A),I(A),I(G),I(A),I(A),I(A),I(A),I(A),I(C),I(A),I(A),I(A),I(A),I(A),I(C),I(C),I(C),I(A) | I(A),I(C),I(A),I(C),I(A),I(A),I(A),I(A),I(A),I(C),I(A),I(A),I(A),I(A),I(A),I(A),I(C),I(A),I(A),I(C) | I(A),I(A),I(C),I(A),I(C),I(A),I(C),I(A),I(A),I(A),I(A),I(A),I(A),I(C),I(C),I(A),I(A),I(C),I(C),I(C) | I(C),I(A),I(G),I(C),I(C),I(A),I(A),I(A),I(A),I(C),I(A),I(A),I(A),I(A),I(A),I(A),I(A),I(A),I(C),I(A) | I(A),I(A),I(G),I(C),I(A),I(A),I(A),I(A),I(C),I(A),I(A),I(C),I(A),I(A),I(C),I(A),I(A),I(C),I(A),I(C) | I(A),I(C),I(A),I(A),I(A),I(A),I(A),I(A),I(C),I(C),I(A),I(A),I(C),I(C),I(C),I(A),I(A),I(C),I(A),I(C) | I(C),I(A),I(C),I(A),I(A),I(A),I(A),I(C),I(A),I(C),I(A),I(C),I(A),I(C),I(A),I(C),I(A),I(A),I(C),I(A) | I(A),I(A),I(A),I(A),I(C),I(A),I(A),I(A),I(A),I(A),I(A),I(C),I(A),I(A),I(C),I(A),I(A),I(A),I(A),I(A) | I(G),I(A),I(A),I(A),I(A),I(A),I(A),I(A),I(C),I(A),I(C),I(C),I(C),I(C),I(A),I(A),I(A),I(A),I(C),I(A) | I(A),I(A),I(C),I(C),I(A),I(A),I(A),I(A),I(C),I(C),I(A),I(A),I(A),I(A),I(C),I(G),I(A),I(A),I(A),I(A) | I(A),I(A),I(C),I(A),I(A),I(A),I(T),I(C),I(C),I(A),I(C),I(A),I(C),I(A),I(A),I(A),I(A),I(A),I(C),I(A) | I(C),I(A),I(A),I(G),I(A),I(G),I(A),I(A),I(A),I(C),I(A),I(C),I(C),I(C),I(C),I(A),I(A),I(A),I(G),I(C) |];
