instances/p1/p1_15_20-2.txt
{
	"num_strings": 15,
	"alphabet": "ACGT",
	"strings": [
		"ACAACAAAAACAACCCAAAC",
		"AAAAAAAAAGCAAGAACACC",
		"AACAAACAAACCACAAAAAG",
		"AAAAGAAAAACAAAAACCCA",
		"ACACAAAAACAAAAAACAAC",
		"AACACACAAAAAACCAACCC",
		"CAGCCAAAACAAAAAAAACA",
		"AAGCAAAACAACAACAACAC",
		"ACAAAAAACCAACCCAACAC",
		"CACAAAACACACACACAACA",
		"AAAACAAAAAACAACAAAAA",
		"GAAAAAAACACCCCAAAACA",
		"AACCAAAACCAAAACGAAAA",
		"AACAAATCCACACAAAAACA",
		"CAAGAGAAACACCCCAAAGC"
	],
	"str_length":[20,20,20,20,20,20,20,20,20,20,20,20,20,20,20]
}